50
120
100
99
98
96
94
90
89
88
88
86
84
81
81
80
79
79
78
76
72
72
72
68
68
65
63
63
63
62
62
57
57
55
48
48
47
45
44
44
41
39
36
33
31
30
28
26
25
24
22
20
